\* OfficeEmploymentProblem *\
Minimize
OBJ: 51376 x_ADMIN_Office_#1_admin_1 + 55836 x_ADMIN_Office_#1_admin_10
 + 55000 x_ADMIN_Office_#1_admin_2 + 55000 x_ADMIN_Office_#1_admin_3
 + 50382 x_ADMIN_Office_#1_admin_4 + 56708 x_ADMIN_Office_#1_admin_5
 + 54366 x_ADMIN_Office_#1_admin_6 + 53314 x_ADMIN_Office_#1_admin_7
 + 57458 x_ADMIN_Office_#1_admin_8 + 58849 x_ADMIN_Office_#1_admin_9
 + 55000 x_ADMIN_Office_#2_admin_1 + 53937 x_ADMIN_Office_#2_admin_10
 + 58998 x_ADMIN_Office_#2_admin_2 + 55000 x_ADMIN_Office_#2_admin_3
 + 59637 x_ADMIN_Office_#2_admin_4 + 55000 x_ADMIN_Office_#2_admin_5
 + 57005 x_ADMIN_Office_#2_admin_6 + 55000 x_ADMIN_Office_#2_admin_7
 + 55000 x_ADMIN_Office_#2_admin_8 + 58527 x_ADMIN_Office_#2_admin_9
 + 51675 x_ADMIN_Office_#3_admin_1 + 55000 x_ADMIN_Office_#3_admin_10
 + 51694 x_ADMIN_Office_#3_admin_2 + 56364 x_ADMIN_Office_#3_admin_3
 + 56910 x_ADMIN_Office_#3_admin_4 + 55000 x_ADMIN_Office_#3_admin_5
 + 53625 x_ADMIN_Office_#3_admin_6 + 59108 x_ADMIN_Office_#3_admin_7
 + 58474 x_ADMIN_Office_#3_admin_8 + 55000 x_ADMIN_Office_#3_admin_9
 + 44000 x_JUNIOR_Office_#1_junior_1 + 40705 x_JUNIOR_Office_#1_junior_10
 + 44000 x_JUNIOR_Office_#1_junior_2 + 43035 x_JUNIOR_Office_#1_junior_3
 + 40564 x_JUNIOR_Office_#1_junior_4 + 44317 x_JUNIOR_Office_#1_junior_5
 + 44000 x_JUNIOR_Office_#1_junior_6 + 39847 x_JUNIOR_Office_#1_junior_7
 + 44000 x_JUNIOR_Office_#1_junior_8 + 44000 x_JUNIOR_Office_#1_junior_9
 + 48334 x_JUNIOR_Office_#2_junior_1 + 44000 x_JUNIOR_Office_#2_junior_10
 + 39395 x_JUNIOR_Office_#2_junior_2 + 41097 x_JUNIOR_Office_#2_junior_3
 + 46723 x_JUNIOR_Office_#2_junior_4 + 42898 x_JUNIOR_Office_#2_junior_5
 + 44000 x_JUNIOR_Office_#2_junior_6 + 42646 x_JUNIOR_Office_#2_junior_7
 + 44000 x_JUNIOR_Office_#2_junior_8 + 48448 x_JUNIOR_Office_#2_junior_9
 + 48055 x_JUNIOR_Office_#3_junior_1 + 41417 x_JUNIOR_Office_#3_junior_10
 + 44000 x_JUNIOR_Office_#3_junior_2 + 44000 x_JUNIOR_Office_#3_junior_3
 + 45390 x_JUNIOR_Office_#3_junior_4 + 47501 x_JUNIOR_Office_#3_junior_5
 + 45630 x_JUNIOR_Office_#3_junior_6 + 44000 x_JUNIOR_Office_#3_junior_7
 + 48008 x_JUNIOR_Office_#3_junior_8 + 39345 x_JUNIOR_Office_#3_junior_9
 + 66000 x_MIDDLE_Office_#1_middle_1 + 66045 x_MIDDLE_Office_#1_middle_10
 + 66000 x_MIDDLE_Office_#1_middle_2 + 66000 x_MIDDLE_Office_#1_middle_3
 + 65612 x_MIDDLE_Office_#1_middle_4 + 66523 x_MIDDLE_Office_#1_middle_5
 + 63518 x_MIDDLE_Office_#1_middle_6 + 65351 x_MIDDLE_Office_#1_middle_7
 + 66000 x_MIDDLE_Office_#1_middle_8 + 68745 x_MIDDLE_Office_#1_middle_9
 + 62973 x_MIDDLE_Office_#2_middle_1 + 70074 x_MIDDLE_Office_#2_middle_10
 + 66000 x_MIDDLE_Office_#2_middle_2 + 70167 x_MIDDLE_Office_#2_middle_3
 + 67164 x_MIDDLE_Office_#2_middle_4 + 66000 x_MIDDLE_Office_#2_middle_5
 + 66000 x_MIDDLE_Office_#2_middle_6 + 66000 x_MIDDLE_Office_#2_middle_7
 + 66000 x_MIDDLE_Office_#2_middle_8 + 66000 x_MIDDLE_Office_#2_middle_9
 + 66000 x_MIDDLE_Office_#3_middle_1 + 66000 x_MIDDLE_Office_#3_middle_10
 + 66000 x_MIDDLE_Office_#3_middle_2 + 68843 x_MIDDLE_Office_#3_middle_3
 + 62251 x_MIDDLE_Office_#3_middle_4 + 66000 x_MIDDLE_Office_#3_middle_5
 + 61598 x_MIDDLE_Office_#3_middle_6 + 66000 x_MIDDLE_Office_#3_middle_7
 + 63671 x_MIDDLE_Office_#3_middle_8 + 64119 x_MIDDLE_Office_#3_middle_9
 + 88000 x_SENIOR_Office_#1_senior_1 + 87040 x_SENIOR_Office_#1_senior_10
 + 83690 x_SENIOR_Office_#1_senior_2 + 85957 x_SENIOR_Office_#1_senior_3
 + 88000 x_SENIOR_Office_#1_senior_4 + 89192 x_SENIOR_Office_#1_senior_5
 + 89422 x_SENIOR_Office_#1_senior_6 + 90664 x_SENIOR_Office_#1_senior_7
 + 90434 x_SENIOR_Office_#1_senior_8 + 88000 x_SENIOR_Office_#1_senior_9
 + 84078 x_SENIOR_Office_#2_senior_1 + 84981 x_SENIOR_Office_#2_senior_10
 + 84406 x_SENIOR_Office_#2_senior_2 + 91866 x_SENIOR_Office_#2_senior_3
 + 92127 x_SENIOR_Office_#2_senior_4 + 85308 x_SENIOR_Office_#2_senior_5
 + 84020 x_SENIOR_Office_#2_senior_6 + 84178 x_SENIOR_Office_#2_senior_7
 + 84506 x_SENIOR_Office_#2_senior_8 + 88599 x_SENIOR_Office_#2_senior_9
 + 88000 x_SENIOR_Office_#3_senior_1 + 88000 x_SENIOR_Office_#3_senior_10
 + 85798 x_SENIOR_Office_#3_senior_2 + 85695 x_SENIOR_Office_#3_senior_3
 + 90379 x_SENIOR_Office_#3_senior_4 + 88000 x_SENIOR_Office_#3_senior_5
 + 89022 x_SENIOR_Office_#3_senior_6 + 88645 x_SENIOR_Office_#3_senior_7
 + 88000 x_SENIOR_Office_#3_senior_8 + 88000 x_SENIOR_Office_#3_senior_9
 + 106018 x_TEAM_LEAD_Office_#1_team_lead_1
 + 111128 x_TEAM_LEAD_Office_#1_team_lead_10
 + 113657 x_TEAM_LEAD_Office_#1_team_lead_2
 + 110000 x_TEAM_LEAD_Office_#1_team_lead_3
 + 108084 x_TEAM_LEAD_Office_#1_team_lead_4
 + 110000 x_TEAM_LEAD_Office_#1_team_lead_5
 + 113429 x_TEAM_LEAD_Office_#1_team_lead_6
 + 114193 x_TEAM_LEAD_Office_#1_team_lead_7
 + 108939 x_TEAM_LEAD_Office_#1_team_lead_8
 + 109046 x_TEAM_LEAD_Office_#1_team_lead_9
 + 114211 x_TEAM_LEAD_Office_#2_team_lead_1
 + 106149 x_TEAM_LEAD_Office_#2_team_lead_10
 + 106928 x_TEAM_LEAD_Office_#2_team_lead_2
 + 110000 x_TEAM_LEAD_Office_#2_team_lead_3
 + 107596 x_TEAM_LEAD_Office_#2_team_lead_4
 + 111697 x_TEAM_LEAD_Office_#2_team_lead_5
 + 110000 x_TEAM_LEAD_Office_#2_team_lead_6
 + 113086 x_TEAM_LEAD_Office_#2_team_lead_7
 + 108211 x_TEAM_LEAD_Office_#2_team_lead_8
 + 110000 x_TEAM_LEAD_Office_#2_team_lead_9
 + 113342 x_TEAM_LEAD_Office_#3_team_lead_1
 + 105021 x_TEAM_LEAD_Office_#3_team_lead_10
 + 107562 x_TEAM_LEAD_Office_#3_team_lead_2
 + 110000 x_TEAM_LEAD_Office_#3_team_lead_3
 + 105864 x_TEAM_LEAD_Office_#3_team_lead_4
 + 110000 x_TEAM_LEAD_Office_#3_team_lead_5
 + 110000 x_TEAM_LEAD_Office_#3_team_lead_6
 + 110000 x_TEAM_LEAD_Office_#3_team_lead_7
 + 109811 x_TEAM_LEAD_Office_#3_team_lead_8
 + 112694 x_TEAM_LEAD_Office_#3_team_lead_9
Subject To
ADMIN_Office_#1_sat_constraint: x_ADMIN_Office_#1_admin_1
 + x_ADMIN_Office_#1_admin_10 + x_ADMIN_Office_#1_admin_2
 + x_ADMIN_Office_#1_admin_3 + x_ADMIN_Office_#1_admin_4
 + x_ADMIN_Office_#1_admin_5 + x_ADMIN_Office_#1_admin_6
 + x_ADMIN_Office_#1_admin_7 + x_ADMIN_Office_#1_admin_8
 + x_ADMIN_Office_#1_admin_9 = 1
ADMIN_Office_#2_sat_constraint: x_ADMIN_Office_#2_admin_1
 + x_ADMIN_Office_#2_admin_10 + x_ADMIN_Office_#2_admin_2
 + x_ADMIN_Office_#2_admin_3 + x_ADMIN_Office_#2_admin_4
 + x_ADMIN_Office_#2_admin_5 + x_ADMIN_Office_#2_admin_6
 + x_ADMIN_Office_#2_admin_7 + x_ADMIN_Office_#2_admin_8
 + x_ADMIN_Office_#2_admin_9 = 1
ADMIN_Office_#3_sat_constraint: x_ADMIN_Office_#3_admin_1
 + x_ADMIN_Office_#3_admin_10 + x_ADMIN_Office_#3_admin_2
 + x_ADMIN_Office_#3_admin_3 + x_ADMIN_Office_#3_admin_4
 + x_ADMIN_Office_#3_admin_5 + x_ADMIN_Office_#3_admin_6
 + x_ADMIN_Office_#3_admin_7 + x_ADMIN_Office_#3_admin_8
 + x_ADMIN_Office_#3_admin_9 = 1
JUNIOR_Office_#1_sat_constraint: x_JUNIOR_Office_#1_junior_1
 + x_JUNIOR_Office_#1_junior_10 + x_JUNIOR_Office_#1_junior_2
 + x_JUNIOR_Office_#1_junior_3 + x_JUNIOR_Office_#1_junior_4
 + x_JUNIOR_Office_#1_junior_5 + x_JUNIOR_Office_#1_junior_6
 + x_JUNIOR_Office_#1_junior_7 + x_JUNIOR_Office_#1_junior_8
 + x_JUNIOR_Office_#1_junior_9 = 1
JUNIOR_Office_#2_sat_constraint: x_JUNIOR_Office_#2_junior_1
 + x_JUNIOR_Office_#2_junior_10 + x_JUNIOR_Office_#2_junior_2
 + x_JUNIOR_Office_#2_junior_3 + x_JUNIOR_Office_#2_junior_4
 + x_JUNIOR_Office_#2_junior_5 + x_JUNIOR_Office_#2_junior_6
 + x_JUNIOR_Office_#2_junior_7 + x_JUNIOR_Office_#2_junior_8
 + x_JUNIOR_Office_#2_junior_9 = 1
JUNIOR_Office_#3_sat_constraint: x_JUNIOR_Office_#3_junior_1
 + x_JUNIOR_Office_#3_junior_10 + x_JUNIOR_Office_#3_junior_2
 + x_JUNIOR_Office_#3_junior_3 + x_JUNIOR_Office_#3_junior_4
 + x_JUNIOR_Office_#3_junior_5 + x_JUNIOR_Office_#3_junior_6
 + x_JUNIOR_Office_#3_junior_7 + x_JUNIOR_Office_#3_junior_8
 + x_JUNIOR_Office_#3_junior_9 = 1
MIDDLE_Office_#1_sat_constraint: x_MIDDLE_Office_#1_middle_1
 + x_MIDDLE_Office_#1_middle_10 + x_MIDDLE_Office_#1_middle_2
 + x_MIDDLE_Office_#1_middle_3 + x_MIDDLE_Office_#1_middle_4
 + x_MIDDLE_Office_#1_middle_5 + x_MIDDLE_Office_#1_middle_6
 + x_MIDDLE_Office_#1_middle_7 + x_MIDDLE_Office_#1_middle_8
 + x_MIDDLE_Office_#1_middle_9 = 1
MIDDLE_Office_#2_sat_constraint: x_MIDDLE_Office_#2_middle_1
 + x_MIDDLE_Office_#2_middle_10 + x_MIDDLE_Office_#2_middle_2
 + x_MIDDLE_Office_#2_middle_3 + x_MIDDLE_Office_#2_middle_4
 + x_MIDDLE_Office_#2_middle_5 + x_MIDDLE_Office_#2_middle_6
 + x_MIDDLE_Office_#2_middle_7 + x_MIDDLE_Office_#2_middle_8
 + x_MIDDLE_Office_#2_middle_9 = 1
MIDDLE_Office_#3_sat_constraint: x_MIDDLE_Office_#3_middle_1
 + x_MIDDLE_Office_#3_middle_10 + x_MIDDLE_Office_#3_middle_2
 + x_MIDDLE_Office_#3_middle_3 + x_MIDDLE_Office_#3_middle_4
 + x_MIDDLE_Office_#3_middle_5 + x_MIDDLE_Office_#3_middle_6
 + x_MIDDLE_Office_#3_middle_7 + x_MIDDLE_Office_#3_middle_8
 + x_MIDDLE_Office_#3_middle_9 = 1
SENIOR_Office_#1_sat_constraint: x_SENIOR_Office_#1_senior_1
 + x_SENIOR_Office_#1_senior_10 + x_SENIOR_Office_#1_senior_2
 + x_SENIOR_Office_#1_senior_3 + x_SENIOR_Office_#1_senior_4
 + x_SENIOR_Office_#1_senior_5 + x_SENIOR_Office_#1_senior_6
 + x_SENIOR_Office_#1_senior_7 + x_SENIOR_Office_#1_senior_8
 + x_SENIOR_Office_#1_senior_9 = 1
SENIOR_Office_#2_sat_constraint: x_SENIOR_Office_#2_senior_1
 + x_SENIOR_Office_#2_senior_10 + x_SENIOR_Office_#2_senior_2
 + x_SENIOR_Office_#2_senior_3 + x_SENIOR_Office_#2_senior_4
 + x_SENIOR_Office_#2_senior_5 + x_SENIOR_Office_#2_senior_6
 + x_SENIOR_Office_#2_senior_7 + x_SENIOR_Office_#2_senior_8
 + x_SENIOR_Office_#2_senior_9 = 1
SENIOR_Office_#3_sat_constraint: x_SENIOR_Office_#3_senior_1
 + x_SENIOR_Office_#3_senior_10 + x_SENIOR_Office_#3_senior_2
 + x_SENIOR_Office_#3_senior_3 + x_SENIOR_Office_#3_senior_4
 + x_SENIOR_Office_#3_senior_5 + x_SENIOR_Office_#3_senior_6
 + x_SENIOR_Office_#3_senior_7 + x_SENIOR_Office_#3_senior_8
 + x_SENIOR_Office_#3_senior_9 = 1
TEAM_LEAD_Office_#1_sat_constraint: x_TEAM_LEAD_Office_#1_team_lead_1
 + x_TEAM_LEAD_Office_#1_team_lead_10 + x_TEAM_LEAD_Office_#1_team_lead_2
 + x_TEAM_LEAD_Office_#1_team_lead_3 + x_TEAM_LEAD_Office_#1_team_lead_4
 + x_TEAM_LEAD_Office_#1_team_lead_5 + x_TEAM_LEAD_Office_#1_team_lead_6
 + x_TEAM_LEAD_Office_#1_team_lead_7 + x_TEAM_LEAD_Office_#1_team_lead_8
 + x_TEAM_LEAD_Office_#1_team_lead_9 = 1
TEAM_LEAD_Office_#2_sat_constraint: x_TEAM_LEAD_Office_#2_team_lead_1
 + x_TEAM_LEAD_Office_#2_team_lead_10 + x_TEAM_LEAD_Office_#2_team_lead_2
 + x_TEAM_LEAD_Office_#2_team_lead_3 + x_TEAM_LEAD_Office_#2_team_lead_4
 + x_TEAM_LEAD_Office_#2_team_lead_5 + x_TEAM_LEAD_Office_#2_team_lead_6
 + x_TEAM_LEAD_Office_#2_team_lead_7 + x_TEAM_LEAD_Office_#2_team_lead_8
 + x_TEAM_LEAD_Office_#2_team_lead_9 = 1
TEAM_LEAD_Office_#3_sat_constraint: x_TEAM_LEAD_Office_#3_team_lead_1
 + x_TEAM_LEAD_Office_#3_team_lead_10 + x_TEAM_LEAD_Office_#3_team_lead_2
 + x_TEAM_LEAD_Office_#3_team_lead_3 + x_TEAM_LEAD_Office_#3_team_lead_4
 + x_TEAM_LEAD_Office_#3_team_lead_5 + x_TEAM_LEAD_Office_#3_team_lead_6
 + x_TEAM_LEAD_Office_#3_team_lead_7 + x_TEAM_LEAD_Office_#3_team_lead_8
 + x_TEAM_LEAD_Office_#3_team_lead_9 = 1
admin_10_vl_constraint: x_ADMIN_Office_#1_admin_10
 + x_ADMIN_Office_#2_admin_10 + x_ADMIN_Office_#3_admin_10 <= 1
admin_1_vl_constraint: x_ADMIN_Office_#1_admin_1 + x_ADMIN_Office_#2_admin_1
 + x_ADMIN_Office_#3_admin_1 <= 1
admin_2_vl_constraint: x_ADMIN_Office_#1_admin_2 + x_ADMIN_Office_#2_admin_2
 + x_ADMIN_Office_#3_admin_2 <= 1
admin_3_vl_constraint: x_ADMIN_Office_#1_admin_3 + x_ADMIN_Office_#2_admin_3
 + x_ADMIN_Office_#3_admin_3 <= 1
admin_4_vl_constraint: x_ADMIN_Office_#1_admin_4 + x_ADMIN_Office_#2_admin_4
 + x_ADMIN_Office_#3_admin_4 <= 1
admin_5_vl_constraint: x_ADMIN_Office_#1_admin_5 + x_ADMIN_Office_#2_admin_5
 + x_ADMIN_Office_#3_admin_5 <= 1
admin_6_vl_constraint: x_ADMIN_Office_#1_admin_6 + x_ADMIN_Office_#2_admin_6
 + x_ADMIN_Office_#3_admin_6 <= 1
admin_7_vl_constraint: x_ADMIN_Office_#1_admin_7 + x_ADMIN_Office_#2_admin_7
 + x_ADMIN_Office_#3_admin_7 <= 1
admin_8_vl_constraint: x_ADMIN_Office_#1_admin_8 + x_ADMIN_Office_#2_admin_8
 + x_ADMIN_Office_#3_admin_8 <= 1
admin_9_vl_constraint: x_ADMIN_Office_#1_admin_9 + x_ADMIN_Office_#2_admin_9
 + x_ADMIN_Office_#3_admin_9 <= 1
junior_10_vl_constraint: x_JUNIOR_Office_#1_junior_10
 + x_JUNIOR_Office_#2_junior_10 + x_JUNIOR_Office_#3_junior_10 <= 1
junior_1_vl_constraint: x_JUNIOR_Office_#1_junior_1
 + x_JUNIOR_Office_#2_junior_1 + x_JUNIOR_Office_#3_junior_1 <= 1
junior_2_vl_constraint: x_JUNIOR_Office_#1_junior_2
 + x_JUNIOR_Office_#2_junior_2 + x_JUNIOR_Office_#3_junior_2 <= 1
junior_3_vl_constraint: x_JUNIOR_Office_#1_junior_3
 + x_JUNIOR_Office_#2_junior_3 + x_JUNIOR_Office_#3_junior_3 <= 1
junior_4_vl_constraint: x_JUNIOR_Office_#1_junior_4
 + x_JUNIOR_Office_#2_junior_4 + x_JUNIOR_Office_#3_junior_4 <= 1
junior_5_vl_constraint: x_JUNIOR_Office_#1_junior_5
 + x_JUNIOR_Office_#2_junior_5 + x_JUNIOR_Office_#3_junior_5 <= 1
junior_6_vl_constraint: x_JUNIOR_Office_#1_junior_6
 + x_JUNIOR_Office_#2_junior_6 + x_JUNIOR_Office_#3_junior_6 <= 1
junior_7_vl_constraint: x_JUNIOR_Office_#1_junior_7
 + x_JUNIOR_Office_#2_junior_7 + x_JUNIOR_Office_#3_junior_7 <= 1
junior_8_vl_constraint: x_JUNIOR_Office_#1_junior_8
 + x_JUNIOR_Office_#2_junior_8 + x_JUNIOR_Office_#3_junior_8 <= 1
junior_9_vl_constraint: x_JUNIOR_Office_#1_junior_9
 + x_JUNIOR_Office_#2_junior_9 + x_JUNIOR_Office_#3_junior_9 <= 1
middle_10_vl_constraint: x_MIDDLE_Office_#1_middle_10
 + x_MIDDLE_Office_#2_middle_10 + x_MIDDLE_Office_#3_middle_10 <= 1
middle_1_vl_constraint: x_MIDDLE_Office_#1_middle_1
 + x_MIDDLE_Office_#2_middle_1 + x_MIDDLE_Office_#3_middle_1 <= 1
middle_2_vl_constraint: x_MIDDLE_Office_#1_middle_2
 + x_MIDDLE_Office_#2_middle_2 + x_MIDDLE_Office_#3_middle_2 <= 1
middle_3_vl_constraint: x_MIDDLE_Office_#1_middle_3
 + x_MIDDLE_Office_#2_middle_3 + x_MIDDLE_Office_#3_middle_3 <= 1
middle_4_vl_constraint: x_MIDDLE_Office_#1_middle_4
 + x_MIDDLE_Office_#2_middle_4 + x_MIDDLE_Office_#3_middle_4 <= 1
middle_5_vl_constraint: x_MIDDLE_Office_#1_middle_5
 + x_MIDDLE_Office_#2_middle_5 + x_MIDDLE_Office_#3_middle_5 <= 1
middle_6_vl_constraint: x_MIDDLE_Office_#1_middle_6
 + x_MIDDLE_Office_#2_middle_6 + x_MIDDLE_Office_#3_middle_6 <= 1
middle_7_vl_constraint: x_MIDDLE_Office_#1_middle_7
 + x_MIDDLE_Office_#2_middle_7 + x_MIDDLE_Office_#3_middle_7 <= 1
middle_8_vl_constraint: x_MIDDLE_Office_#1_middle_8
 + x_MIDDLE_Office_#2_middle_8 + x_MIDDLE_Office_#3_middle_8 <= 1
middle_9_vl_constraint: x_MIDDLE_Office_#1_middle_9
 + x_MIDDLE_Office_#2_middle_9 + x_MIDDLE_Office_#3_middle_9 <= 1
senior_10_vl_constraint: x_SENIOR_Office_#1_senior_10
 + x_SENIOR_Office_#2_senior_10 + x_SENIOR_Office_#3_senior_10 <= 1
senior_1_vl_constraint: x_SENIOR_Office_#1_senior_1
 + x_SENIOR_Office_#2_senior_1 + x_SENIOR_Office_#3_senior_1 <= 1
senior_2_vl_constraint: x_SENIOR_Office_#1_senior_2
 + x_SENIOR_Office_#2_senior_2 + x_SENIOR_Office_#3_senior_2 <= 1
senior_3_vl_constraint: x_SENIOR_Office_#1_senior_3
 + x_SENIOR_Office_#2_senior_3 + x_SENIOR_Office_#3_senior_3 <= 1
senior_4_vl_constraint: x_SENIOR_Office_#1_senior_4
 + x_SENIOR_Office_#2_senior_4 + x_SENIOR_Office_#3_senior_4 <= 1
senior_5_vl_constraint: x_SENIOR_Office_#1_senior_5
 + x_SENIOR_Office_#2_senior_5 + x_SENIOR_Office_#3_senior_5 <= 1
senior_6_vl_constraint: x_SENIOR_Office_#1_senior_6
 + x_SENIOR_Office_#2_senior_6 + x_SENIOR_Office_#3_senior_6 <= 1
senior_7_vl_constraint: x_SENIOR_Office_#1_senior_7
 + x_SENIOR_Office_#2_senior_7 + x_SENIOR_Office_#3_senior_7 <= 1
senior_8_vl_constraint: x_SENIOR_Office_#1_senior_8
 + x_SENIOR_Office_#2_senior_8 + x_SENIOR_Office_#3_senior_8 <= 1
senior_9_vl_constraint: x_SENIOR_Office_#1_senior_9
 + x_SENIOR_Office_#2_senior_9 + x_SENIOR_Office_#3_senior_9 <= 1
team_lead_10_vl_constraint: x_TEAM_LEAD_Office_#1_team_lead_10
 + x_TEAM_LEAD_Office_#2_team_lead_10 + x_TEAM_LEAD_Office_#3_team_lead_10
 <= 1
team_lead_1_vl_constraint: x_TEAM_LEAD_Office_#1_team_lead_1
 + x_TEAM_LEAD_Office_#2_team_lead_1 + x_TEAM_LEAD_Office_#3_team_lead_1 <= 1
team_lead_2_vl_constraint: x_TEAM_LEAD_Office_#1_team_lead_2
 + x_TEAM_LEAD_Office_#2_team_lead_2 + x_TEAM_LEAD_Office_#3_team_lead_2 <= 1
team_lead_3_vl_constraint: x_TEAM_LEAD_Office_#1_team_lead_3
 + x_TEAM_LEAD_Office_#2_team_lead_3 + x_TEAM_LEAD_Office_#3_team_lead_3 <= 1
team_lead_4_vl_constraint: x_TEAM_LEAD_Office_#1_team_lead_4
 + x_TEAM_LEAD_Office_#2_team_lead_4 + x_TEAM_LEAD_Office_#3_team_lead_4 <= 1
team_lead_5_vl_constraint: x_TEAM_LEAD_Office_#1_team_lead_5
 + x_TEAM_LEAD_Office_#2_team_lead_5 + x_TEAM_LEAD_Office_#3_team_lead_5 <= 1
team_lead_6_vl_constraint: x_TEAM_LEAD_Office_#1_team_lead_6
 + x_TEAM_LEAD_Office_#2_team_lead_6 + x_TEAM_LEAD_Office_#3_team_lead_6 <= 1
team_lead_7_vl_constraint: x_TEAM_LEAD_Office_#1_team_lead_7
 + x_TEAM_LEAD_Office_#2_team_lead_7 + x_TEAM_LEAD_Office_#3_team_lead_7 <= 1
team_lead_8_vl_constraint: x_TEAM_LEAD_Office_#1_team_lead_8
 + x_TEAM_LEAD_Office_#2_team_lead_8 + x_TEAM_LEAD_Office_#3_team_lead_8 <= 1
team_lead_9_vl_constraint: x_TEAM_LEAD_Office_#1_team_lead_9
 + x_TEAM_LEAD_Office_#2_team_lead_9 + x_TEAM_LEAD_Office_#3_team_lead_9 <= 1
Binaries
x_ADMIN_Office_#1_admin_1
x_ADMIN_Office_#1_admin_10
x_ADMIN_Office_#1_admin_2
x_ADMIN_Office_#1_admin_3
x_ADMIN_Office_#1_admin_4
x_ADMIN_Office_#1_admin_5
x_ADMIN_Office_#1_admin_6
x_ADMIN_Office_#1_admin_7
x_ADMIN_Office_#1_admin_8
x_ADMIN_Office_#1_admin_9
x_ADMIN_Office_#2_admin_1
x_ADMIN_Office_#2_admin_10
x_ADMIN_Office_#2_admin_2
x_ADMIN_Office_#2_admin_3
x_ADMIN_Office_#2_admin_4
x_ADMIN_Office_#2_admin_5
x_ADMIN_Office_#2_admin_6
x_ADMIN_Office_#2_admin_7
x_ADMIN_Office_#2_admin_8
x_ADMIN_Office_#2_admin_9
x_ADMIN_Office_#3_admin_1
x_ADMIN_Office_#3_admin_10
x_ADMIN_Office_#3_admin_2
x_ADMIN_Office_#3_admin_3
x_ADMIN_Office_#3_admin_4
x_ADMIN_Office_#3_admin_5
x_ADMIN_Office_#3_admin_6
x_ADMIN_Office_#3_admin_7
x_ADMIN_Office_#3_admin_8
x_ADMIN_Office_#3_admin_9
x_JUNIOR_Office_#1_junior_1
x_JUNIOR_Office_#1_junior_10
x_JUNIOR_Office_#1_junior_2
x_JUNIOR_Office_#1_junior_3
x_JUNIOR_Office_#1_junior_4
x_JUNIOR_Office_#1_junior_5
x_JUNIOR_Office_#1_junior_6
x_JUNIOR_Office_#1_junior_7
x_JUNIOR_Office_#1_junior_8
x_JUNIOR_Office_#1_junior_9
x_JUNIOR_Office_#2_junior_1
x_JUNIOR_Office_#2_junior_10
x_JUNIOR_Office_#2_junior_2
x_JUNIOR_Office_#2_junior_3
x_JUNIOR_Office_#2_junior_4
x_JUNIOR_Office_#2_junior_5
x_JUNIOR_Office_#2_junior_6
x_JUNIOR_Office_#2_junior_7
x_JUNIOR_Office_#2_junior_8
x_JUNIOR_Office_#2_junior_9
x_JUNIOR_Office_#3_junior_1
x_JUNIOR_Office_#3_junior_10
x_JUNIOR_Office_#3_junior_2
x_JUNIOR_Office_#3_junior_3
x_JUNIOR_Office_#3_junior_4
x_JUNIOR_Office_#3_junior_5
x_JUNIOR_Office_#3_junior_6
x_JUNIOR_Office_#3_junior_7
x_JUNIOR_Office_#3_junior_8
x_JUNIOR_Office_#3_junior_9
x_MIDDLE_Office_#1_middle_1
x_MIDDLE_Office_#1_middle_10
x_MIDDLE_Office_#1_middle_2
x_MIDDLE_Office_#1_middle_3
x_MIDDLE_Office_#1_middle_4
x_MIDDLE_Office_#1_middle_5
x_MIDDLE_Office_#1_middle_6
x_MIDDLE_Office_#1_middle_7
x_MIDDLE_Office_#1_middle_8
x_MIDDLE_Office_#1_middle_9
x_MIDDLE_Office_#2_middle_1
x_MIDDLE_Office_#2_middle_10
x_MIDDLE_Office_#2_middle_2
x_MIDDLE_Office_#2_middle_3
x_MIDDLE_Office_#2_middle_4
x_MIDDLE_Office_#2_middle_5
x_MIDDLE_Office_#2_middle_6
x_MIDDLE_Office_#2_middle_7
x_MIDDLE_Office_#2_middle_8
x_MIDDLE_Office_#2_middle_9
x_MIDDLE_Office_#3_middle_1
x_MIDDLE_Office_#3_middle_10
x_MIDDLE_Office_#3_middle_2
x_MIDDLE_Office_#3_middle_3
x_MIDDLE_Office_#3_middle_4
x_MIDDLE_Office_#3_middle_5
x_MIDDLE_Office_#3_middle_6
x_MIDDLE_Office_#3_middle_7
x_MIDDLE_Office_#3_middle_8
x_MIDDLE_Office_#3_middle_9
x_SENIOR_Office_#1_senior_1
x_SENIOR_Office_#1_senior_10
x_SENIOR_Office_#1_senior_2
x_SENIOR_Office_#1_senior_3
x_SENIOR_Office_#1_senior_4
x_SENIOR_Office_#1_senior_5
x_SENIOR_Office_#1_senior_6
x_SENIOR_Office_#1_senior_7
x_SENIOR_Office_#1_senior_8
x_SENIOR_Office_#1_senior_9
x_SENIOR_Office_#2_senior_1
x_SENIOR_Office_#2_senior_10
x_SENIOR_Office_#2_senior_2
x_SENIOR_Office_#2_senior_3
x_SENIOR_Office_#2_senior_4
x_SENIOR_Office_#2_senior_5
x_SENIOR_Office_#2_senior_6
x_SENIOR_Office_#2_senior_7
x_SENIOR_Office_#2_senior_8
x_SENIOR_Office_#2_senior_9
x_SENIOR_Office_#3_senior_1
x_SENIOR_Office_#3_senior_10
x_SENIOR_Office_#3_senior_2
x_SENIOR_Office_#3_senior_3
x_SENIOR_Office_#3_senior_4
x_SENIOR_Office_#3_senior_5
x_SENIOR_Office_#3_senior_6
x_SENIOR_Office_#3_senior_7
x_SENIOR_Office_#3_senior_8
x_SENIOR_Office_#3_senior_9
x_TEAM_LEAD_Office_#1_team_lead_1
x_TEAM_LEAD_Office_#1_team_lead_10
x_TEAM_LEAD_Office_#1_team_lead_2
x_TEAM_LEAD_Office_#1_team_lead_3
x_TEAM_LEAD_Office_#1_team_lead_4
x_TEAM_LEAD_Office_#1_team_lead_5
x_TEAM_LEAD_Office_#1_team_lead_6
x_TEAM_LEAD_Office_#1_team_lead_7
x_TEAM_LEAD_Office_#1_team_lead_8
x_TEAM_LEAD_Office_#1_team_lead_9
x_TEAM_LEAD_Office_#2_team_lead_1
x_TEAM_LEAD_Office_#2_team_lead_10
x_TEAM_LEAD_Office_#2_team_lead_2
x_TEAM_LEAD_Office_#2_team_lead_3
x_TEAM_LEAD_Office_#2_team_lead_4
x_TEAM_LEAD_Office_#2_team_lead_5
x_TEAM_LEAD_Office_#2_team_lead_6
x_TEAM_LEAD_Office_#2_team_lead_7
x_TEAM_LEAD_Office_#2_team_lead_8
x_TEAM_LEAD_Office_#2_team_lead_9
x_TEAM_LEAD_Office_#3_team_lead_1
x_TEAM_LEAD_Office_#3_team_lead_10
x_TEAM_LEAD_Office_#3_team_lead_2
x_TEAM_LEAD_Office_#3_team_lead_3
x_TEAM_LEAD_Office_#3_team_lead_4
x_TEAM_LEAD_Office_#3_team_lead_5
x_TEAM_LEAD_Office_#3_team_lead_6
x_TEAM_LEAD_Office_#3_team_lead_7
x_TEAM_LEAD_Office_#3_team_lead_8
x_TEAM_LEAD_Office_#3_team_lead_9
End
